NAME : portcgen-18-31
COMMENT : portcgen N=18, seed=31
TYPE : TSP
DIMENSION : 18
EDGE_WEIGHT_TYPE : EUC_2D
NODE_COORD_SECTION
1 -102953 138623
2 -276560 -15834
3 -81837 -227357
4 47076 103733
5 -386736 -301873
6 103649 -235603
7 277946 -232048
8 -186128 232919
9 -38834 55414
10 -459899 -174044
11 -193392 -261324
12 -189280 -79942
13 18129 -555399
14 -150227 135765
15 -42559 65356
16 -347925 275143
17 570329 179607
18 -61329 297736
